204
5878
58
1252
939
2859
45
116
91
59
389
150
177
200
1412
322
92
54
589
127
110
229
2602
66
720
902
49
3060
426
68
9196
376
80
238
1946
32823
511
196
287
135
570
710
76
250
1716
354
163
321
202
510
91
1130
89
160
32
206
2244
223
145
176
45
1305
200
6344
106
110
247
396
94
87
1040
44
1041
1532
3100
56
5825
307
100
93
278
2024
593
191
4995
87
267
1680
2588
298
50
8833
204
152
248
726
189
121
203
182
